100 4950
1 2 5
1 3 4
1 4 5
1 5 3
1 6 4
1 7 5
1 8 4
1 9 1
1 10 4
1 11 5
1 12 2
1 13 1
1 14 2
1 15 3
1 16 3
1 17 5
1 18 2
1 19 2
1 20 1
1 21 3
1 22 2
1 23 4
1 24 4
1 25 3
1 26 4
1 27 2
1 28 2
1 29 3
1 30 2
1 31 3
1 32 5
1 33 3
1 34 1
1 35 2
1 36 5
1 37 2
1 38 2
1 39 2
1 40 2
1 41 3
1 42 2
1 43 1
1 44 3
1 45 5
1 46 2
1 47 2
1 48 2
1 49 2
1 50 5
1 51 2
1 52 1
1 53 1
1 54 4
1 55 2
1 56 1
1 57 1
1 58 1
1 59 1
1 60 3
1 61 1
1 62 1
1 63 2
1 64 1
1 65 3
1 66 4
1 67 3
1 68 5
1 69 1
1 70 1
1 71 3
1 72 4
1 73 5
1 74 4
1 75 1
1 76 3
1 77 2
1 78 4
1 79 4
1 80 4
1 81 2
1 82 2
1 83 5
1 84 5
1 85 3
1 86 1
1 87 4
1 88 5
1 89 3
1 90 2
1 91 1
1 92 1
1 93 5
1 94 4
1 95 5
1 96 5
1 97 1
1 98 3
1 99 2
1 100 5
2 3 3
2 4 2
2 5 1
2 6 4
2 7 1
2 8 3
2 9 5
2 10 2
2 11 2
2 12 5
2 13 1
2 14 1
2 15 5
2 16 1
2 17 3
2 18 2
2 19 1
2 20 1
2 21 1
2 22 2
2 23 3
2 24 1
2 25 3
2 26 1
2 27 1
2 28 3
2 29 2
2 30 2
2 31 5
2 32 2
2 33 3
2 34 3
2 35 4
2 36 3
2 37 2
2 38 3
2 39 1
2 40 5
2 41 4
2 42 1
2 43 2
2 44 4
2 45 1
2 46 4
2 47 2
2 48 4
2 49 1
2 50 1
2 51 2
2 52 4
2 53 1
2 54 2
2 55 2
2 56 3
2 57 1
2 58 5
2 59 4
2 60 1
2 61 2
2 62 3
2 63 1
2 64 1
2 65 4
2 66 1
2 67 5
2 68 1
2 69 5
2 70 3
2 71 4
2 72 4
2 73 1
2 74 1
2 75 2
2 76 1
2 77 4
2 78 3
2 79 3
2 80 3
2 81 4
2 82 1
2 83 3
2 84 4
2 85 3
2 86 4
2 87 5
2 88 4
2 89 5
2 90 5
2 91 4
2 92 1
2 93 3
2 94 1
2 95 4
2 96 5
2 97 3
2 98 5
2 99 3
2 100 1
3 4 4
3 5 4
3 6 4
3 7 1
3 8 2
3 9 4
3 10 3
3 11 3
3 12 4
3 13 3
3 14 5
3 15 2
3 16 1
3 17 2
3 18 4
3 19 1
3 20 1
3 21 5
3 22 1
3 23 5
3 24 2
3 25 1
3 26 4
3 27 5
3 28 5
3 29 3
3 30 5
3 31 3
3 32 5
3 33 5
3 34 5
3 35 2
3 36 4
3 37 2
3 38 3
3 39 3
3 40 3
3 41 2
3 42 2
3 43 1
3 44 1
3 45 5
3 46 2
3 47 5
3 48 5
3 49 1
3 50 4
3 51 4
3 52 3
3 53 3
3 54 3
3 55 5
3 56 5
3 57 3
3 58 5
3 59 4
3 60 5
3 61 5
3 62 5
3 63 2
3 64 2
3 65 3
3 66 3
3 67 1
3 68 1
3 69 5
3 70 2
3 71 4
3 72 2
3 73 3
3 74 4
3 75 5
3 76 4
3 77 2
3 78 5
3 79 4
3 80 5
3 81 4
3 82 4
3 83 5
3 84 4
3 85 5
3 86 1
3 87 3
3 88 5
3 89 1
3 90 5
3 91 3
3 92 2
3 93 1
3 94 4
3 95 1
3 96 2
3 97 4
3 98 1
3 99 2
3 100 1
4 5 4
4 6 3
4 7 5
4 8 3
4 9 1
4 10 1
4 11 1
4 12 5
4 13 2
4 14 2
4 15 5
4 16 3
4 17 4
4 18 3
4 19 4
4 20 1
4 21 4
4 22 2
4 23 1
4 24 2
4 25 5
4 26 4
4 27 3
4 28 3
4 29 3
4 30 2
4 31 1
4 32 2
4 33 2
4 34 5
4 35 5
4 36 4
4 37 1
4 38 1
4 39 1
4 40 3
4 41 4
4 42 4
4 43 5
4 44 1
4 45 5
4 46 5
4 47 3
4 48 4
4 49 5
4 50 5
4 51 1
4 52 1
4 53 4
4 54 4
4 55 4
4 56 1
4 57 4
4 58 1
4 59 5
4 60 2
4 61 1
4 62 4
4 63 5
4 64 2
4 65 2
4 66 4
4 67 2
4 68 2
4 69 2
4 70 2
4 71 1
4 72 2
4 73 1
4 74 5
4 75 2
4 76 1
4 77 3
4 78 2
4 79 4
4 80 3
4 81 4
4 82 1
4 83 3
4 84 3
4 85 5
4 86 3
4 87 1
4 88 4
4 89 2
4 90 1
4 91 4
4 92 4
4 93 4
4 94 3
4 95 5
4 96 1
4 97 4
4 98 2
4 99 3
4 100 4
5 6 4
5 7 3
5 8 1
5 9 1
5 10 2
5 11 4
5 12 4
5 13 3
5 14 2
5 15 5
5 16 2
5 17 1
5 18 4
5 19 4
5 20 3
5 21 1
5 22 2
5 23 4
5 24 2
5 25 1
5 26 1
5 27 2
5 28 1
5 29 2
5 30 4
5 31 3
5 32 1
5 33 4
5 34 4
5 35 1
5 36 5
5 37 2
5 38 5
5 39 1
5 40 1
5 41 2
5 42 5
5 43 2
5 44 5
5 45 5
5 46 5
5 47 2
5 48 2
5 49 4
5 50 3
5 51 2
5 52 3
5 53 2
5 54 1
5 55 3
5 56 5
5 57 5
5 58 1
5 59 1
5 60 5
5 61 3
5 62 1
5 63 4
5 64 4
5 65 2
5 66 2
5 67 3
5 68 3
5 69 3
5 70 3
5 71 4
5 72 1
5 73 1
5 74 1
5 75 3
5 76 1
5 77 4
5 78 4
5 79 5
5 80 5
5 81 2
5 82 1
5 83 2
5 84 4
5 85 4
5 86 5
5 87 3
5 88 4
5 89 2
5 90 1
5 91 1
5 92 1
5 93 1
5 94 1
5 95 1
5 96 3
5 97 1
5 98 5
5 99 4
5 100 5
6 7 5
6 8 3
6 9 5
6 10 3
6 11 4
6 12 5
6 13 1
6 14 2
6 15 1
6 16 5
6 17 3
6 18 3
6 19 2
6 20 5
6 21 2
6 22 5
6 23 1
6 24 4
6 25 5
6 26 2
6 27 4
6 28 3
6 29 5
6 30 5
6 31 2
6 32 2
6 33 3
6 34 1
6 35 5
6 36 2
6 37 1
6 38 3
6 39 2
6 40 2
6 41 2
6 42 5
6 43 1
6 44 4
6 45 3
6 46 4
6 47 1
6 48 3
6 49 4
6 50 2
6 51 3
6 52 5
6 53 1
6 54 1
6 55 5
6 56 3
6 57 5
6 58 2
6 59 4
6 60 2
6 61 2
6 62 1
6 63 2
6 64 3
6 65 4
6 66 4
6 67 4
6 68 3
6 69 5
6 70 5
6 71 5
6 72 2
6 73 3
6 74 4
6 75 1
6 76 5
6 77 5
6 78 5
6 79 1
6 80 3
6 81 2
6 82 4
6 83 4
6 84 5
6 85 2
6 86 1
6 87 2
6 88 3
6 89 5
6 90 2
6 91 4
6 92 5
6 93 1
6 94 1
6 95 4
6 96 3
6 97 5
6 98 1
6 99 5
6 100 5
7 8 3
7 9 5
7 10 4
7 11 5
7 12 4
7 13 3
7 14 5
7 15 4
7 16 2
7 17 4
7 18 1
7 19 5
7 20 1
7 21 4
7 22 4
7 23 1
7 24 5
7 25 2
7 26 3
7 27 3
7 28 1
7 29 1
7 30 1
7 31 1
7 32 2
7 33 3
7 34 1
7 35 2
7 36 4
7 37 1
7 38 3
7 39 2
7 40 3
7 41 5
7 42 2
7 43 5
7 44 3
7 45 1
7 46 1
7 47 2
7 48 4
7 49 5
7 50 1
7 51 2
7 52 3
7 53 3
7 54 3
7 55 2
7 56 5
7 57 3
7 58 3
7 59 4
7 60 1
7 61 2
7 62 1
7 63 3
7 64 1
7 65 2
7 66 2
7 67 3
7 68 1
7 69 2
7 70 5
7 71 1
7 72 5
7 73 5
7 74 3
7 75 3
7 76 3
7 77 3
7 78 2
7 79 1
7 80 3
7 81 3
7 82 2
7 83 4
7 84 2
7 85 3
7 86 3
7 87 4
7 88 5
7 89 2
7 90 3
7 91 2
7 92 3
7 93 2
7 94 3
7 95 5
7 96 1
7 97 3
7 98 1
7 99 3
7 100 4
8 9 1
8 10 1
8 11 5
8 12 2
8 13 1
8 14 3
8 15 1
8 16 5
8 17 3
8 18 1
8 19 4
8 20 2
8 21 5
8 22 5
8 23 1
8 24 3
8 25 2
8 26 1
8 27 2
8 28 2
8 29 3
8 30 3
8 31 4
8 32 1
8 33 3
8 34 5
8 35 3
8 36 1
8 37 1
8 38 5
8 39 5
8 40 2
8 41 2
8 42 4
8 43 1
8 44 4
8 45 4
8 46 4
8 47 4
8 48 4
8 49 2
8 50 3
8 51 1
8 52 5
8 53 2
8 54 1
8 55 1
8 56 2
8 57 1
8 58 3
8 59 3
8 60 3
8 61 1
8 62 3
8 63 3
8 64 2
8 65 4
8 66 2
8 67 5
8 68 4
8 69 2
8 70 5
8 71 2
8 72 5
8 73 3
8 74 5
8 75 1
8 76 5
8 77 5
8 78 1
8 79 3
8 80 1
8 81 2
8 82 2
8 83 1
8 84 3
8 85 4
8 86 5
8 87 4
8 88 5
8 89 3
8 90 2
8 91 1
8 92 2
8 93 3
8 94 1
8 95 4
8 96 1
8 97 3
8 98 2
8 99 5
8 100 3
9 10 5
9 11 2
9 12 2
9 13 4
9 14 5
9 15 5
9 16 2
9 17 1
9 18 5
9 19 4
9 20 2
9 21 1
9 22 5
9 23 5
9 24 4
9 25 2
9 26 2
9 27 4
9 28 4
9 29 4
9 30 4
9 31 4
9 32 5
9 33 1
9 34 5
9 35 5
9 36 4
9 37 2
9 38 1
9 39 2
9 40 4
9 41 2
9 42 2
9 43 1
9 44 5
9 45 4
9 46 1
9 47 1
9 48 2
9 49 5
9 50 2
9 51 2
9 52 2
9 53 1
9 54 1
9 55 1
9 56 3
9 57 2
9 58 2
9 59 4
9 60 5
9 61 2
9 62 1
9 63 2
9 64 1
9 65 5
9 66 5
9 67 1
9 68 5
9 69 5
9 70 1
9 71 5
9 72 3
9 73 5
9 74 5
9 75 3
9 76 2
9 77 3
9 78 4
9 79 1
9 80 1
9 81 2
9 82 4
9 83 1
9 84 3
9 85 5
9 86 1
9 87 2
9 88 1
9 89 4
9 90 4
9 91 4
9 92 4
9 93 2
9 94 1
9 95 3
9 96 4
9 97 3
9 98 4
9 99 3
9 100 1
10 11 4
10 12 1
10 13 3
10 14 5
10 15 3
10 16 2
10 17 4
10 18 3
10 19 1
10 20 1
10 21 3
10 22 2
10 23 4
10 24 3
10 25 1
10 26 4
10 27 2
10 28 1
10 29 2
10 30 5
10 31 2
10 32 3
10 33 5
10 34 2
10 35 4
10 36 2
10 37 2
10 38 3
10 39 5
10 40 2
10 41 5
10 42 4
10 43 1
10 44 4
10 45 3
10 46 5
10 47 3
10 48 1
10 49 2
10 50 4
10 51 3
10 52 5
10 53 4
10 54 4
10 55 1
10 56 1
10 57 3
10 58 3
10 59 2
10 60 3
10 61 1
10 62 4
10 63 4
10 64 5
10 65 1
10 66 2
10 67 5
10 68 1
10 69 5
10 70 4
10 71 4
10 72 4
10 73 5
10 74 2
10 75 3
10 76 1
10 77 5
10 78 2
10 79 4
10 80 5
10 81 2
10 82 1
10 83 4
10 84 4
10 85 2
10 86 4
10 87 2
10 88 4
10 89 3
10 90 2
10 91 2
10 92 2
10 93 1
10 94 4
10 95 1
10 96 4
10 97 2
10 98 3
10 99 1
10 100 2
11 12 5
11 13 2
11 14 4
11 15 1
11 16 4
11 17 4
11 18 3
11 19 4
11 20 4
11 21 2
11 22 4
11 23 1
11 24 1
11 25 1
11 26 2
11 27 2
11 28 1
11 29 2
11 30 4
11 31 4
11 32 5
11 33 5
11 34 4
11 35 3
11 36 4
11 37 3
11 38 2
11 39 2
11 40 2
11 41 2
11 42 2
11 43 2
11 44 5
11 45 1
11 46 1
11 47 3
11 48 4
11 49 1
11 50 2
11 51 5
11 52 3
11 53 5
11 54 3
11 55 3
11 56 4
11 57 3
11 58 3
11 59 5
11 60 5
11 61 1
11 62 2
11 63 4
11 64 1
11 65 2
11 66 5
11 67 3
11 68 2
11 69 5
11 70 3
11 71 1
11 72 2
11 73 5
11 74 2
11 75 2
11 76 5
11 77 3
11 78 2
11 79 2
11 80 5
11 81 2
11 82 4
11 83 5
11 84 2
11 85 2
11 86 3
11 87 5
11 88 4
11 89 4
11 90 4
11 91 4
11 92 4
11 93 2
11 94 3
11 95 3
11 96 3
11 97 1
11 98 2
11 99 4
11 100 1
12 13 2
12 14 2
12 15 1
12 16 5
12 17 3
12 18 5
12 19 1
12 20 1
12 21 4
12 22 4
12 23 4
12 24 2
12 25 1
12 26 5
12 27 5
12 28 1
12 29 1
12 30 5
12 31 4
12 32 1
12 33 2
12 34 5
12 35 1
12 36 5
12 37 2
12 38 4
12 39 1
12 40 4
12 41 1
12 42 4
12 43 1
12 44 5
12 45 1
12 46 2
12 47 1
12 48 2
12 49 3
12 50 2
12 51 1
12 52 5
12 53 2
12 54 3
12 55 4
12 56 3
12 57 1
12 58 3
12 59 1
12 60 5
12 61 5
12 62 1
12 63 5
12 64 4
12 65 5
12 66 4
12 67 4
12 68 1
12 69 2
12 70 3
12 71 1
12 72 4
12 73 2
12 74 3
12 75 2
12 76 4
12 77 2
12 78 3
12 79 2
12 80 5
12 81 4
12 82 2
12 83 2
12 84 4
12 85 3
12 86 4
12 87 2
12 88 3
12 89 4
12 90 1
12 91 2
12 92 1
12 93 5
12 94 2
12 95 2
12 96 2
12 97 1
12 98 2
12 99 5
12 100 4
13 14 3
13 15 4
13 16 4
13 17 3
13 18 5
13 19 3
13 20 4
13 21 2
13 22 5
13 23 1
13 24 3
13 25 4
13 26 2
13 27 3
13 28 1
13 29 4
13 30 5
13 31 5
13 32 2
13 33 3
13 34 2
13 35 5
13 36 4
13 37 5
13 38 2
13 39 3
13 40 4
13 41 1
13 42 2
13 43 4
13 44 2
13 45 4
13 46 5
13 47 1
13 48 5
13 49 4
13 50 3
13 51 4
13 52 3
13 53 3
13 54 5
13 55 5
13 56 5
13 57 5
13 58 1
13 59 1
13 60 2
13 61 3
13 62 2
13 63 3
13 64 3
13 65 4
13 66 4
13 67 1
13 68 1
13 69 3
13 70 4
13 71 2
13 72 4
13 73 5
13 74 3
13 75 2
13 76 4
13 77 1
13 78 4
13 79 1
13 80 3
13 81 2
13 82 3
13 83 2
13 84 1
13 85 3
13 86 1
13 87 5
13 88 1
13 89 2
13 90 3
13 91 2
13 92 5
13 93 5
13 94 1
13 95 3
13 96 2
13 97 1
13 98 1
13 99 4
13 100 2
14 15 1
14 16 1
14 17 4
14 18 2
14 19 3
14 20 4
14 21 4
14 22 4
14 23 5
14 24 5
14 25 5
14 26 3
14 27 5
14 28 4
14 29 2
14 30 1
14 31 1
14 32 3
14 33 4
14 34 2
14 35 1
14 36 5
14 37 2
14 38 3
14 39 1
14 40 1
14 41 5
14 42 1
14 43 2
14 44 2
14 45 4
14 46 1
14 47 5
14 48 1
14 49 1
14 50 3
14 51 4
14 52 1
14 53 4
14 54 3
14 55 4
14 56 3
14 57 2
14 58 1
14 59 4
14 60 5
14 61 5
14 62 5
14 63 4
14 64 4
14 65 1
14 66 3
14 67 5
14 68 1
14 69 1
14 70 2
14 71 5
14 72 2
14 73 5
14 74 5
14 75 5
14 76 1
14 77 1
14 78 2
14 79 5
14 80 4
14 81 5
14 82 3
14 83 3
14 84 5
14 85 1
14 86 5
14 87 1
14 88 5
14 89 5
14 90 4
14 91 4
14 92 5
14 93 4
14 94 3
14 95 3
14 96 1
14 97 2
14 98 2
14 99 1
14 100 3
15 16 5
15 17 3
15 18 4
15 19 4
15 20 2
15 21 3
15 22 2
15 23 3
15 24 2
15 25 2
15 26 5
15 27 3
15 28 5
15 29 2
15 30 5
15 31 3
15 32 4
15 33 2
15 34 5
15 35 4
15 36 1
15 37 1
15 38 3
15 39 2
15 40 2
15 41 1
15 42 3
15 43 4
15 44 3
15 45 1
15 46 4
15 47 2
15 48 1
15 49 3
15 50 2
15 51 3
15 52 5
15 53 4
15 54 2
15 55 2
15 56 2
15 57 5
15 58 5
15 59 4
15 60 1
15 61 2
15 62 5
15 63 2
15 64 3
15 65 1
15 66 2
15 67 2
15 68 2
15 69 4
15 70 5
15 71 5
15 72 3
15 73 1
15 74 3
15 75 1
15 76 3
15 77 5
15 78 5
15 79 2
15 80 2
15 81 4
15 82 3
15 83 2
15 84 2
15 85 4
15 86 4
15 87 1
15 88 2
15 89 1
15 90 4
15 91 2
15 92 5
15 93 2
15 94 3
15 95 3
15 96 5
15 97 1
15 98 2
15 99 4
15 100 4
16 17 3
16 18 2
16 19 1
16 20 2
16 21 3
16 22 4
16 23 5
16 24 5
16 25 4
16 26 2
16 27 3
16 28 3
16 29 3
16 30 5
16 31 2
16 32 4
16 33 3
16 34 3
16 35 5
16 36 3
16 37 4
16 38 4
16 39 3
16 40 2
16 41 3
16 42 1
16 43 1
16 44 1
16 45 1
16 46 5
16 47 1
16 48 2
16 49 2
16 50 1
16 51 2
16 52 4
16 53 1
16 54 4
16 55 2
16 56 4
16 57 3
16 58 2
16 59 1
16 60 2
16 61 5
16 62 4
16 63 5
16 64 2
16 65 5
16 66 3
16 67 2
16 68 2
16 69 5
16 70 3
16 71 1
16 72 3
16 73 3
16 74 5
16 75 4
16 76 1
16 77 5
16 78 3
16 79 5
16 80 1
16 81 3
16 82 3
16 83 1
16 84 5
16 85 4
16 86 3
16 87 1
16 88 5
16 89 4
16 90 3
16 91 4
16 92 2
16 93 3
16 94 1
16 95 4
16 96 1
16 97 1
16 98 2
16 99 3
16 100 2
17 18 4
17 19 3
17 20 4
17 21 1
17 22 4
17 23 5
17 24 4
17 25 5
17 26 1
17 27 5
17 28 5
17 29 4
17 30 5
17 31 5
17 32 4
17 33 5
17 34 1
17 35 5
17 36 2
17 37 3
17 38 4
17 39 3
17 40 5
17 41 5
17 42 5
17 43 5
17 44 4
17 45 5
17 46 3
17 47 5
17 48 1
17 49 5
17 50 5
17 51 1
17 52 1
17 53 4
17 54 4
17 55 4
17 56 1
17 57 2
17 58 1
17 59 3
17 60 1
17 61 3
17 62 4
17 63 3
17 64 5
17 65 3
17 66 1
17 67 1
17 68 1
17 69 4
17 70 4
17 71 3
17 72 3
17 73 5
17 74 1
17 75 4
17 76 1
17 77 4
17 78 4
17 79 3
17 80 1
17 81 3
17 82 3
17 83 4
17 84 2
17 85 4
17 86 2
17 87 3
17 88 3
17 89 4
17 90 2
17 91 5
17 92 4
17 93 3
17 94 1
17 95 4
17 96 3
17 97 3
17 98 1
17 99 1
17 100 4
18 19 5
18 20 1
18 21 5
18 22 4
18 23 3
18 24 3
18 25 1
18 26 5
18 27 3
18 28 3
18 29 3
18 30 4
18 31 3
18 32 2
18 33 4
18 34 1
18 35 5
18 36 2
18 37 2
18 38 1
18 39 3
18 40 4
18 41 3
18 42 4
18 43 3
18 44 5
18 45 3
18 46 4
18 47 4
18 48 3
18 49 4
18 50 3
18 51 3
18 52 1
18 53 3
18 54 3
18 55 5
18 56 5
18 57 2
18 58 3
18 59 2
18 60 2
18 61 1
18 62 3
18 63 4
18 64 4
18 65 5
18 66 1
18 67 1
18 68 3
18 69 4
18 70 1
18 71 3
18 72 2
18 73 1
18 74 3
18 75 3
18 76 1
18 77 3
18 78 3
18 79 5
18 80 1
18 81 1
18 82 5
18 83 4
18 84 1
18 85 4
18 86 2
18 87 1
18 88 1
18 89 1
18 90 3
18 91 4
18 92 5
18 93 5
18 94 3
18 95 3
18 96 1
18 97 4
18 98 3
18 99 2
18 100 4
19 20 3
19 21 4
19 22 2
19 23 2
19 24 4
19 25 4
19 26 3
19 27 2
19 28 5
19 29 4
19 30 1
19 31 5
19 32 2
19 33 1
19 34 5
19 35 1
19 36 1
19 37 2
19 38 4
19 39 3
19 40 4
19 41 4
19 42 5
19 43 1
19 44 3
19 45 2
19 46 3
19 47 5
19 48 1
19 49 1
19 50 2
19 51 1
19 52 4
19 53 3
19 54 4
19 55 4
19 56 2
19 57 2
19 58 3
19 59 2
19 60 1
19 61 4
19 62 1
19 63 3
19 64 1
19 65 1
19 66 1
19 67 5
19 68 5
19 69 1
19 70 2
19 71 4
19 72 5
19 73 1
19 74 5
19 75 2
19 76 3
19 77 3
19 78 3
19 79 2
19 80 5
19 81 2
19 82 4
19 83 3
19 84 3
19 85 2
19 86 5
19 87 1
19 88 5
19 89 5
19 90 1
19 91 5
19 92 5
19 93 5
19 94 4
19 95 3
19 96 5
19 97 1
19 98 2
19 99 4
19 100 3
20 21 5
20 22 2
20 23 4
20 24 3
20 25 1
20 26 4
20 27 2
20 28 4
20 29 3
20 30 4
20 31 3
20 32 3
20 33 2
20 34 4
20 35 3
20 36 4
20 37 2
20 38 4
20 39 4
20 40 2
20 41 3
20 42 5
20 43 2
20 44 2
20 45 2
20 46 4
20 47 3
20 48 1
20 49 5
20 50 1
20 51 2
20 52 1
20 53 5
20 54 4
20 55 5
20 56 1
20 57 1
20 58 4
20 59 3
20 60 5
20 61 5
20 62 2
20 63 5
20 64 2
20 65 2
20 66 3
20 67 3
20 68 4
20 69 3
20 70 2
20 71 4
20 72 5
20 73 4
20 74 2
20 75 2
20 76 3
20 77 1
20 78 2
20 79 2
20 80 1
20 81 3
20 82 3
20 83 4
20 84 3
20 85 1
20 86 3
20 87 4
20 88 2
20 89 3
20 90 5
20 91 2
20 92 4
20 93 5
20 94 4
20 95 1
20 96 3
20 97 4
20 98 5
20 99 2
20 100 2
21 22 2
21 23 5
21 24 4
21 25 5
21 26 3
21 27 4
21 28 3
21 29 1
21 30 4
21 31 1
21 32 1
21 33 1
21 34 1
21 35 2
21 36 1
21 37 1
21 38 1
21 39 1
21 40 1
21 41 4
21 42 1
21 43 1
21 44 5
21 45 4
21 46 2
21 47 3
21 48 2
21 49 4
21 50 1
21 51 4
21 52 5
21 53 3
21 54 3
21 55 1
21 56 5
21 57 5
21 58 1
21 59 4
21 60 3
21 61 1
21 62 4
21 63 3
21 64 1
21 65 3
21 66 2
21 67 1
21 68 1
21 69 4
21 70 3
21 71 4
21 72 5
21 73 4
21 74 2
21 75 5
21 76 2
21 77 1
21 78 5
21 79 4
21 80 5
21 81 5
21 82 3
21 83 4
21 84 3
21 85 5
21 86 4
21 87 4
21 88 4
21 89 1
21 90 5
21 91 1
21 92 2
21 93 2
21 94 5
21 95 4
21 96 1
21 97 5
21 98 5
21 99 2
21 100 2
22 23 5
22 24 5
22 25 3
22 26 2
22 27 1
22 28 3
22 29 5
22 30 5
22 31 2
22 32 3
22 33 5
22 34 1
22 35 4
22 36 2
22 37 2
22 38 1
22 39 3
22 40 2
22 41 3
22 42 3
22 43 5
22 44 3
22 45 3
22 46 5
22 47 5
22 48 5
22 49 2
22 50 4
22 51 5
22 52 2
22 53 4
22 54 5
22 55 5
22 56 5
22 57 5
22 58 3
22 59 2
22 60 5
22 61 4
22 62 1
22 63 4
22 64 2
22 65 5
22 66 3
22 67 3
22 68 3
22 69 3
22 70 3
22 71 5
22 72 5
22 73 5
22 74 1
22 75 2
22 76 4
22 77 1
22 78 1
22 79 2
22 80 5
22 81 4
22 82 4
22 83 1
22 84 3
22 85 5
22 86 4
22 87 2
22 88 1
22 89 5
22 90 2
22 91 5
22 92 2
22 93 3
22 94 1
22 95 2
22 96 1
22 97 1
22 98 5
22 99 1
22 100 3
23 24 1
23 25 3
23 26 5
23 27 5
23 28 3
23 29 5
23 30 4
23 31 4
23 32 1
23 33 3
23 34 4
23 35 3
23 36 4
23 37 1
23 38 5
23 39 2
23 40 4
23 41 5
23 42 4
23 43 4
23 44 4
23 45 1
23 46 4
23 47 2
23 48 2
23 49 5
23 50 4
23 51 5
23 52 2
23 53 1
23 54 4
23 55 4
23 56 5
23 57 2
23 58 5
23 59 4
23 60 1
23 61 3
23 62 1
23 63 1
23 64 4
23 65 1
23 66 5
23 67 4
23 68 2
23 69 4
23 70 4
23 71 5
23 72 3
23 73 4
23 74 5
23 75 2
23 76 5
23 77 1
23 78 5
23 79 1
23 80 4
23 81 5
23 82 2
23 83 3
23 84 1
23 85 2
23 86 4
23 87 3
23 88 3
23 89 5
23 90 4
23 91 1
23 92 4
23 93 5
23 94 2
23 95 5
23 96 3
23 97 1
23 98 5
23 99 4
23 100 1
24 25 2
24 26 3
24 27 4
24 28 2
24 29 5
24 30 5
24 31 5
24 32 3
24 33 1
24 34 4
24 35 5
24 36 2
24 37 2
24 38 2
24 39 3
24 40 5
24 41 5
24 42 5
24 43 5
24 44 3
24 45 3
24 46 4
24 47 5
24 48 3
24 49 4
24 50 5
24 51 3
24 52 4
24 53 4
24 54 2
24 55 5
24 56 3
24 57 1
24 58 5
24 59 4
24 60 5
24 61 2
24 62 5
24 63 1
24 64 2
24 65 5
24 66 5
24 67 4
24 68 1
24 69 1
24 70 1
24 71 5
24 72 3
24 73 3
24 74 2
24 75 5
24 76 3
24 77 1
24 78 5
24 79 4
24 80 2
24 81 5
24 82 5
24 83 1
24 84 4
24 85 4
24 86 3
24 87 2
24 88 1
24 89 3
24 90 4
24 91 5
24 92 5
24 93 4
24 94 2
24 95 5
24 96 2
24 97 5
24 98 1
24 99 5
24 100 4
25 26 2
25 27 2
25 28 4
25 29 3
25 30 2
25 31 1
25 32 2
25 33 5
25 34 4
25 35 4
25 36 5
25 37 4
25 38 4
25 39 5
25 40 5
25 41 1
25 42 3
25 43 3
25 44 3
25 45 1
25 46 3
25 47 3
25 48 2
25 49 2
25 50 2
25 51 3
25 52 4
25 53 4
25 54 3
25 55 2
25 56 3
25 57 5
25 58 1
25 59 1
25 60 2
25 61 2
25 62 2
25 63 5
25 64 4
25 65 3
25 66 2
25 67 1
25 68 2
25 69 5
25 70 3
25 71 3
25 72 5
25 73 1
25 74 3
25 75 4
25 76 3
25 77 2
25 78 3
25 79 3
25 80 3
25 81 3
25 82 4
25 83 5
25 84 2
25 85 4
25 86 2
25 87 4
25 88 1
25 89 2
25 90 5
25 91 1
25 92 2
25 93 2
25 94 3
25 95 4
25 96 5
25 97 5
25 98 5
25 99 3
25 100 3
26 27 3
26 28 3
26 29 1
26 30 3
26 31 4
26 32 2
26 33 5
26 34 3
26 35 4
26 36 3
26 37 1
26 38 1
26 39 5
26 40 4
26 41 1
26 42 5
26 43 1
26 44 4
26 45 4
26 46 4
26 47 2
26 48 1
26 49 1
26 50 4
26 51 1
26 52 4
26 53 1
26 54 3
26 55 2
26 56 3
26 57 5
26 58 2
26 59 2
26 60 3
26 61 2
26 62 4
26 63 3
26 64 1
26 65 3
26 66 1
26 67 3
26 68 2
26 69 1
26 70 5
26 71 5
26 72 3
26 73 3
26 74 1
26 75 1
26 76 5
26 77 3
26 78 4
26 79 3
26 80 5
26 81 1
26 82 5
26 83 5
26 84 5
26 85 4
26 86 3
26 87 2
26 88 5
26 89 4
26 90 4
26 91 5
26 92 1
26 93 1
26 94 3
26 95 4
26 96 4
26 97 3
26 98 3
26 99 1
26 100 4
27 28 5
27 29 4
27 30 1
27 31 3
27 32 2
27 33 1
27 34 5
27 35 3
27 36 4
27 37 4
27 38 5
27 39 5
27 40 2
27 41 5
27 42 5
27 43 4
27 44 4
27 45 1
27 46 2
27 47 5
27 48 2
27 49 4
27 50 3
27 51 1
27 52 3
27 53 3
27 54 2
27 55 4
27 56 1
27 57 5
27 58 4
27 59 3
27 60 2
27 61 1
27 62 5
27 63 2
27 64 5
27 65 5
27 66 1
27 67 4
27 68 3
27 69 5
27 70 4
27 71 3
27 72 5
27 73 3
27 74 5
27 75 3
27 76 2
27 77 1
27 78 4
27 79 2
27 80 4
27 81 5
27 82 2
27 83 5
27 84 4
27 85 1
27 86 1
27 87 5
27 88 5
27 89 4
27 90 5
27 91 4
27 92 2
27 93 3
27 94 5
27 95 1
27 96 1
27 97 3
27 98 3
27 99 4
27 100 1
28 29 3
28 30 3
28 31 1
28 32 4
28 33 2
28 34 4
28 35 1
28 36 4
28 37 2
28 38 5
28 39 3
28 40 3
28 41 2
28 42 4
28 43 2
28 44 5
28 45 5
28 46 2
28 47 2
28 48 1
28 49 5
28 50 1
28 51 3
28 52 1
28 53 3
28 54 4
28 55 3
28 56 4
28 57 1
28 58 2
28 59 3
28 60 4
28 61 5
28 62 3
28 63 2
28 64 5
28 65 5
28 66 1
28 67 1
28 68 3
28 69 3
28 70 5
28 71 3
28 72 5
28 73 2
28 74 4
28 75 2
28 76 4
28 77 3
28 78 3
28 79 4
28 80 2
28 81 3
28 82 1
28 83 5
28 84 2
28 85 1
28 86 5
28 87 5
28 88 3
28 89 3
28 90 4
28 91 1
28 92 1
28 93 4
28 94 2
28 95 3
28 96 2
28 97 3
28 98 5
28 99 4
28 100 2
29 30 5
29 31 2
29 32 2
29 33 4
29 34 5
29 35 4
29 36 4
29 37 1
29 38 2
29 39 3
29 40 2
29 41 2
29 42 2
29 43 4
29 44 2
29 45 4
29 46 5
29 47 5
29 48 4
29 49 5
29 50 5
29 51 3
29 52 3
29 53 3
29 54 4
29 55 4
29 56 4
29 57 2
29 58 4
29 59 1
29 60 1
29 61 2
29 62 2
29 63 5
29 64 4
29 65 4
29 66 1
29 67 5
29 68 3
29 69 5
29 70 2
29 71 3
29 72 2
29 73 1
29 74 3
29 75 4
29 76 3
29 77 1
29 78 1
29 79 3
29 80 2
29 81 1
29 82 5
29 83 2
29 84 3
29 85 2
29 86 4
29 87 3
29 88 1
29 89 2
29 90 2
29 91 5
29 92 2
29 93 3
29 94 4
29 95 4
29 96 2
29 97 5
29 98 1
29 99 2
29 100 5
30 31 4
30 32 2
30 33 2
30 34 3
30 35 2
30 36 4
30 37 3
30 38 4
30 39 5
30 40 1
30 41 2
30 42 4
30 43 3
30 44 2
30 45 3
30 46 4
30 47 1
30 48 1
30 49 2
30 50 5
30 51 1
30 52 5
30 53 3
30 54 4
30 55 2
30 56 3
30 57 1
30 58 2
30 59 1
30 60 1
30 61 4
30 62 5
30 63 1
30 64 3
30 65 4
30 66 4
30 67 5
30 68 2
30 69 3
30 70 2
30 71 3
30 72 1
30 73 5
30 74 2
30 75 3
30 76 5
30 77 1
30 78 3
30 79 2
30 80 1
30 81 2
30 82 2
30 83 1
30 84 3
30 85 5
30 86 2
30 87 4
30 88 4
30 89 2
30 90 5
30 91 3
30 92 2
30 93 4
30 94 5
30 95 5
30 96 3
30 97 5
30 98 4
30 99 5
30 100 2
31 32 4
31 33 5
31 34 1
31 35 1
31 36 3
31 37 2
31 38 4
31 39 3
31 40 5
31 41 3
31 42 5
31 43 5
31 44 4
31 45 3
31 46 5
31 47 5
31 48 2
31 49 5
31 50 2
31 51 5
31 52 1
31 53 1
31 54 1
31 55 5
31 56 5
31 57 4
31 58 3
31 59 5
31 60 5
31 61 4
31 62 1
31 63 2
31 64 2
31 65 4
31 66 3
31 67 3
31 68 3
31 69 4
31 70 4
31 71 3
31 72 3
31 73 2
31 74 2
31 75 2
31 76 5
31 77 1
31 78 3
31 79 1
31 80 3
31 81 3
31 82 1
31 83 3
31 84 3
31 85 2
31 86 2
31 87 1
31 88 4
31 89 3
31 90 5
31 91 4
31 92 2
31 93 2
31 94 1
31 95 3
31 96 4
31 97 4
31 98 2
31 99 4
31 100 4
32 33 3
32 34 1
32 35 3
32 36 4
32 37 1
32 38 5
32 39 2
32 40 4
32 41 5
32 42 2
32 43 1
32 44 1
32 45 4
32 46 1
32 47 5
32 48 5
32 49 2
32 50 2
32 51 5
32 52 4
32 53 4
32 54 1
32 55 5
32 56 1
32 57 3
32 58 4
32 59 4
32 60 5
32 61 5
32 62 3
32 63 3
32 64 1
32 65 3
32 66 4
32 67 3
32 68 1
32 69 2
32 70 3
32 71 3
32 72 5
32 73 4
32 74 3
32 75 3
32 76 3
32 77 3
32 78 1
32 79 4
32 80 3
32 81 2
32 82 4
32 83 5
32 84 5
32 85 1
32 86 3
32 87 3
32 88 5
32 89 5
32 90 2
32 91 3
32 92 1
32 93 4
32 94 3
32 95 3
32 96 4
32 97 3
32 98 2
32 99 2
32 100 3
33 34 5
33 35 4
33 36 4
33 37 1
33 38 4
33 39 3
33 40 4
33 41 5
33 42 2
33 43 2
33 44 2
33 45 4
33 46 5
33 47 4
33 48 1
33 49 5
33 50 3
33 51 3
33 52 1
33 53 3
33 54 3
33 55 2
33 56 4
33 57 3
33 58 3
33 59 2
33 60 4
33 61 2
33 62 2
33 63 5
33 64 4
33 65 5
33 66 4
33 67 1
33 68 3
33 69 3
33 70 5
33 71 1
33 72 2
33 73 4
33 74 5
33 75 3
33 76 5
33 77 3
33 78 1
33 79 2
33 80 1
33 81 1
33 82 5
33 83 2
33 84 1
33 85 3
33 86 1
33 87 1
33 88 3
33 89 1
33 90 1
33 91 5
33 92 3
33 93 2
33 94 5
33 95 1
33 96 5
33 97 2
33 98 3
33 99 1
33 100 4
34 35 5
34 36 5
34 37 4
34 38 5
34 39 3
34 40 1
34 41 1
34 42 1
34 43 2
34 44 4
34 45 2
34 46 1
34 47 1
34 48 1
34 49 5
34 50 1
34 51 3
34 52 3
34 53 1
34 54 4
34 55 3
34 56 2
34 57 5
34 58 4
34 59 5
34 60 5
34 61 4
34 62 3
34 63 4
34 64 1
34 65 5
34 66 2
34 67 1
34 68 3
34 69 3
34 70 5
34 71 2
34 72 1
34 73 3
34 74 4
34 75 1
34 76 5
34 77 5
34 78 2
34 79 5
34 80 3
34 81 1
34 82 2
34 83 1
34 84 1
34 85 2
34 86 2
34 87 3
34 88 1
34 89 3
34 90 3
34 91 4
34 92 1
34 93 1
34 94 1
34 95 3
34 96 2
34 97 5
34 98 3
34 99 5
34 100 3
35 36 1
35 37 2
35 38 4
35 39 3
35 40 5
35 41 2
35 42 4
35 43 3
35 44 1
35 45 3
35 46 5
35 47 1
35 48 1
35 49 5
35 50 5
35 51 4
35 52 3
35 53 3
35 54 4
35 55 1
35 56 2
35 57 3
35 58 5
35 59 4
35 60 4
35 61 1
35 62 4
35 63 2
35 64 3
35 65 5
35 66 2
35 67 1
35 68 1
35 69 4
35 70 5
35 71 4
35 72 1
35 73 1
35 74 3
35 75 2
35 76 2
35 77 2
35 78 5
35 79 1
35 80 4
35 81 1
35 82 4
35 83 4
35 84 4
35 85 5
35 86 5
35 87 2
35 88 3
35 89 4
35 90 1
35 91 3
35 92 5
35 93 4
35 94 2
35 95 5
35 96 2
35 97 2
35 98 5
35 99 4
35 100 3
36 37 5
36 38 2
36 39 3
36 40 3
36 41 4
36 42 2
36 43 2
36 44 2
36 45 4
36 46 5
36 47 1
36 48 3
36 49 3
36 50 2
36 51 3
36 52 2
36 53 4
36 54 3
36 55 5
36 56 3
36 57 2
36 58 4
36 59 5
36 60 4
36 61 3
36 62 3
36 63 3
36 64 5
36 65 5
36 66 2
36 67 1
36 68 5
36 69 4
36 70 2
36 71 4
36 72 4
36 73 5
36 74 2
36 75 2
36 76 3
36 77 2
36 78 3
36 79 4
36 80 5
36 81 2
36 82 1
36 83 3
36 84 1
36 85 5
36 86 4
36 87 5
36 88 5
36 89 1
36 90 1
36 91 1
36 92 4
36 93 4
36 94 5
36 95 3
36 96 4
36 97 4
36 98 4
36 99 2
36 100 1
37 38 5
37 39 5
37 40 1
37 41 3
37 42 4
37 43 1
37 44 4
37 45 2
37 46 2
37 47 4
37 48 5
37 49 2
37 50 1
37 51 4
37 52 4
37 53 1
37 54 2
37 55 1
37 56 1
37 57 5
37 58 5
37 59 1
37 60 2
37 61 2
37 62 3
37 63 4
37 64 2
37 65 5
37 66 5
37 67 5
37 68 2
37 69 2
37 70 3
37 71 3
37 72 3
37 73 1
37 74 1
37 75 4
37 76 5
37 77 3
37 78 2
37 79 1
37 80 2
37 81 1
37 82 4
37 83 5
37 84 2
37 85 5
37 86 2
37 87 4
37 88 2
37 89 5
37 90 4
37 91 5
37 92 3
37 93 4
37 94 3
37 95 5
37 96 5
37 97 3
37 98 1
37 99 5
37 100 4
38 39 2
38 40 2
38 41 5
38 42 5
38 43 3
38 44 2
38 45 3
38 46 1
38 47 1
38 48 2
38 49 4
38 50 2
38 51 3
38 52 1
38 53 2
38 54 2
38 55 3
38 56 5
38 57 3
38 58 5
38 59 5
38 60 3
38 61 2
38 62 4
38 63 1
38 64 5
38 65 2
38 66 4
38 67 4
38 68 2
38 69 3
38 70 1
38 71 2
38 72 3
38 73 2
38 74 3
38 75 5
38 76 1
38 77 3
38 78 2
38 79 4
38 80 2
38 81 5
38 82 3
38 83 5
38 84 3
38 85 4
38 86 4
38 87 2
38 88 2
38 89 1
38 90 1
38 91 4
38 92 3
38 93 4
38 94 3
38 95 2
38 96 3
38 97 4
38 98 2
38 99 2
38 100 4
39 40 5
39 41 2
39 42 3
39 43 3
39 44 4
39 45 2
39 46 5
39 47 1
39 48 5
39 49 4
39 50 1
39 51 1
39 52 4
39 53 1
39 54 5
39 55 5
39 56 4
39 57 1
39 58 3
39 59 2
39 60 4
39 61 2
39 62 4
39 63 4
39 64 1
39 65 1
39 66 2
39 67 1
39 68 3
39 69 5
39 70 3
39 71 4
39 72 4
39 73 1
39 74 3
39 75 3
39 76 5
39 77 1
39 78 3
39 79 2
39 80 4
39 81 3
39 82 3
39 83 1
39 84 1
39 85 4
39 86 5
39 87 2
39 88 3
39 89 5
39 90 5
39 91 3
39 92 5
39 93 1
39 94 3
39 95 2
39 96 1
39 97 5
39 98 2
39 99 3
39 100 4
40 41 5
40 42 4
40 43 2
40 44 2
40 45 1
40 46 1
40 47 3
40 48 3
40 49 2
40 50 2
40 51 2
40 52 2
40 53 4
40 54 2
40 55 4
40 56 1
40 57 2
40 58 5
40 59 4
40 60 3
40 61 2
40 62 5
40 63 3
40 64 4
40 65 2
40 66 4
40 67 5
40 68 2
40 69 1
40 70 4
40 71 5
40 72 4
40 73 2
40 74 3
40 75 1
40 76 3
40 77 5
40 78 3
40 79 3
40 80 1
40 81 4
40 82 4
40 83 2
40 84 4
40 85 3
40 86 3
40 87 2
40 88 4
40 89 2
40 90 5
40 91 3
40 92 2
40 93 1
40 94 2
40 95 1
40 96 2
40 97 3
40 98 1
40 99 1
40 100 2
41 42 3
41 43 4
41 44 1
41 45 1
41 46 3
41 47 2
41 48 5
41 49 1
41 50 5
41 51 5
41 52 2
41 53 3
41 54 2
41 55 3
41 56 3
41 57 4
41 58 1
41 59 2
41 60 1
41 61 4
41 62 3
41 63 3
41 64 5
41 65 4
41 66 2
41 67 2
41 68 4
41 69 5
41 70 3
41 71 4
41 72 5
41 73 2
41 74 2
41 75 4
41 76 4
41 77 5
41 78 1
41 79 5
41 80 5
41 81 5
41 82 1
41 83 1
41 84 3
41 85 4
41 86 1
41 87 3
41 88 3
41 89 3
41 90 2
41 91 1
41 92 4
41 93 4
41 94 2
41 95 2
41 96 4
41 97 1
41 98 2
41 99 1
41 100 3
42 43 3
42 44 1
42 45 2
42 46 4
42 47 4
42 48 4
42 49 2
42 50 1
42 51 4
42 52 1
42 53 1
42 54 2
42 55 4
42 56 1
42 57 1
42 58 3
42 59 1
42 60 4
42 61 5
42 62 1
42 63 5
42 64 5
42 65 1
42 66 5
42 67 2
42 68 5
42 69 5
42 70 5
42 71 2
42 72 2
42 73 3
42 74 2
42 75 1
42 76 4
42 77 4
42 78 5
42 79 1
42 80 3
42 81 4
42 82 3
42 83 2
42 84 5
42 85 2
42 86 2
42 87 5
42 88 2
42 89 4
42 90 4
42 91 5
42 92 1
42 93 1
42 94 3
42 95 1
42 96 1
42 97 4
42 98 2
42 99 4
42 100 4
43 44 2
43 45 4
43 46 4
43 47 4
43 48 3
43 49 1
43 50 3
43 51 4
43 52 2
43 53 2
43 54 1
43 55 1
43 56 1
43 57 5
43 58 1
43 59 3
43 60 5
43 61 3
43 62 4
43 63 2
43 64 3
43 65 2
43 66 5
43 67 4
43 68 3
43 69 1
43 70 5
43 71 4
43 72 2
43 73 3
43 74 4
43 75 5
43 76 4
43 77 2
43 78 3
43 79 5
43 80 5
43 81 1
43 82 5
43 83 1
43 84 2
43 85 5
43 86 2
43 87 2
43 88 3
43 89 2
43 90 2
43 91 1
43 92 3
43 93 5
43 94 4
43 95 2
43 96 3
43 97 2
43 98 5
43 99 3
43 100 2
44 45 1
44 46 2
44 47 1
44 48 1
44 49 5
44 50 4
44 51 4
44 52 3
44 53 4
44 54 3
44 55 2
44 56 1
44 57 2
44 58 1
44 59 1
44 60 3
44 61 3
44 62 5
44 63 4
44 64 5
44 65 5
44 66 4
44 67 3
44 68 5
44 69 2
44 70 4
44 71 4
44 72 4
44 73 3
44 74 3
44 75 2
44 76 3
44 77 1
44 78 1
44 79 2
44 80 5
44 81 5
44 82 5
44 83 1
44 84 2
44 85 4
44 86 1
44 87 1
44 88 4
44 89 1
44 90 5
44 91 1
44 92 1
44 93 4
44 94 4
44 95 5
44 96 3
44 97 2
44 98 3
44 99 2
44 100 1
45 46 4
45 47 2
45 48 4
45 49 3
45 50 3
45 51 2
45 52 3
45 53 4
45 54 2
45 55 1
45 56 4
45 57 5
45 58 5
45 59 1
45 60 5
45 61 2
45 62 4
45 63 1
45 64 2
45 65 5
45 66 4
45 67 5
45 68 1
45 69 4
45 70 4
45 71 4
45 72 4
45 73 5
45 74 3
45 75 3
45 76 4
45 77 2
45 78 4
45 79 3
45 80 4
45 81 5
45 82 4
45 83 1
45 84 4
45 85 1
45 86 3
45 87 5
45 88 5
45 89 1
45 90 2
45 91 4
45 92 1
45 93 4
45 94 4
45 95 3
45 96 4
45 97 5
45 98 1
45 99 5
45 100 1
46 47 4
46 48 3
46 49 3
46 50 5
46 51 4
46 52 5
46 53 4
46 54 5
46 55 1
46 56 3
46 57 4
46 58 5
46 59 3
46 60 1
46 61 4
46 62 4
46 63 2
46 64 2
46 65 1
46 66 5
46 67 4
46 68 3
46 69 2
46 70 5
46 71 4
46 72 4
46 73 4
46 74 4
46 75 4
46 76 1
46 77 3
46 78 4
46 79 4
46 80 1
46 81 4
46 82 2
46 83 1
46 84 4
46 85 5
46 86 1
46 87 2
46 88 1
46 89 1
46 90 3
46 91 4
46 92 4
46 93 4
46 94 1
46 95 1
46 96 2
46 97 5
46 98 4
46 99 4
46 100 1
47 48 3
47 49 5
47 50 2
47 51 4
47 52 1
47 53 1
47 54 5
47 55 1
47 56 2
47 57 5
47 58 5
47 59 3
47 60 3
47 61 5
47 62 2
47 63 3
47 64 4
47 65 2
47 66 1
47 67 2
47 68 2
47 69 5
47 70 2
47 71 2
47 72 5
47 73 3
47 74 4
47 75 3
47 76 5
47 77 5
47 78 1
47 79 2
47 80 4
47 81 3
47 82 2
47 83 4
47 84 5
47 85 5
47 86 4
47 87 1
47 88 4
47 89 4
47 90 1
47 91 1
47 92 4
47 93 5
47 94 1
47 95 2
47 96 4
47 97 4
47 98 3
47 99 2
47 100 1
48 49 1
48 50 5
48 51 3
48 52 5
48 53 4
48 54 1
48 55 5
48 56 5
48 57 1
48 58 5
48 59 5
48 60 4
48 61 1
48 62 1
48 63 2
48 64 2
48 65 5
48 66 2
48 67 5
48 68 5
48 69 1
48 70 1
48 71 3
48 72 5
48 73 2
48 74 3
48 75 5
48 76 1
48 77 4
48 78 2
48 79 4
48 80 2
48 81 5
48 82 5
48 83 2
48 84 5
48 85 1
48 86 2
48 87 4
48 88 4
48 89 5
48 90 1
48 91 1
48 92 3
48 93 5
48 94 1
48 95 5
48 96 1
48 97 5
48 98 3
48 99 3
48 100 3
49 50 5
49 51 2
49 52 4
49 53 5
49 54 2
49 55 4
49 56 3
49 57 1
49 58 3
49 59 5
49 60 1
49 61 4
49 62 2
49 63 5
49 64 5
49 65 3
49 66 2
49 67 2
49 68 3
49 69 2
49 70 4
49 71 3
49 72 2
49 73 2
49 74 3
49 75 1
49 76 4
49 77 1
49 78 5
49 79 2
49 80 1
49 81 4
49 82 2
49 83 1
49 84 3
49 85 1
49 86 2
49 87 5
49 88 5
49 89 2
49 90 4
49 91 1
49 92 4
49 93 2
49 94 4
49 95 4
49 96 1
49 97 2
49 98 1
49 99 3
49 100 1
50 51 2
50 52 1
50 53 1
50 54 1
50 55 4
50 56 2
50 57 3
50 58 2
50 59 1
50 60 5
50 61 3
50 62 1
50 63 4
50 64 1
50 65 4
50 66 3
50 67 2
50 68 1
50 69 5
50 70 4
50 71 4
50 72 5
50 73 4
50 74 4
50 75 4
50 76 1
50 77 5
50 78 5
50 79 4
50 80 4
50 81 4
50 82 1
50 83 1
50 84 1
50 85 3
50 86 1
50 87 4
50 88 5
50 89 4
50 90 1
50 91 2
50 92 5
50 93 5
50 94 3
50 95 5
50 96 4
50 97 3
50 98 4
50 99 3
50 100 4
51 52 3
51 53 1
51 54 5
51 55 2
51 56 4
51 57 4
51 58 4
51 59 1
51 60 1
51 61 4
51 62 4
51 63 3
51 64 3
51 65 3
51 66 2
51 67 4
51 68 3
51 69 4
51 70 5
51 71 1
51 72 2
51 73 3
51 74 5
51 75 5
51 76 5
51 77 4
51 78 3
51 79 5
51 80 3
51 81 1
51 82 1
51 83 1
51 84 4
51 85 5
51 86 4
51 87 1
51 88 4
51 89 3
51 90 4
51 91 3
51 92 2
51 93 4
51 94 3
51 95 1
51 96 1
51 97 3
51 98 4
51 99 5
51 100 1
52 53 4
52 54 3
52 55 4
52 56 5
52 57 5
52 58 5
52 59 4
52 60 3
52 61 3
52 62 3
52 63 2
52 64 1
52 65 5
52 66 2
52 67 2
52 68 1
52 69 5
52 70 1
52 71 1
52 72 3
52 73 1
52 74 5
52 75 5
52 76 1
52 77 2
52 78 3
52 79 1
52 80 5
52 81 4
52 82 2
52 83 5
52 84 5
52 85 4
52 86 4
52 87 1
52 88 2
52 89 3
52 90 1
52 91 2
52 92 1
52 93 3
52 94 4
52 95 2
52 96 1
52 97 4
52 98 5
52 99 3
52 100 2
53 54 4
53 55 5
53 56 3
53 57 4
53 58 4
53 59 5
53 60 5
53 61 2
53 62 5
53 63 3
53 64 1
53 65 5
53 66 4
53 67 4
53 68 1
53 69 4
53 70 4
53 71 3
53 72 2
53 73 4
53 74 4
53 75 1
53 76 4
53 77 4
53 78 4
53 79 2
53 80 2
53 81 4
53 82 4
53 83 5
53 84 2
53 85 1
53 86 5
53 87 3
53 88 2
53 89 5
53 90 3
53 91 3
53 92 5
53 93 1
53 94 1
53 95 1
53 96 4
53 97 2
53 98 1
53 99 2
53 100 3
54 55 5
54 56 4
54 57 5
54 58 1
54 59 1
54 60 5
54 61 2
54 62 5
54 63 1
54 64 5
54 65 2
54 66 4
54 67 2
54 68 4
54 69 3
54 70 3
54 71 5
54 72 3
54 73 2
54 74 1
54 75 3
54 76 1
54 77 3
54 78 3
54 79 1
54 80 4
54 81 2
54 82 4
54 83 3
54 84 2
54 85 4
54 86 4
54 87 4
54 88 4
54 89 3
54 90 5
54 91 3
54 92 4
54 93 3
54 94 2
54 95 3
54 96 2
54 97 2
54 98 1
54 99 3
54 100 5
55 56 4
55 57 5
55 58 1
55 59 2
55 60 1
55 61 2
55 62 1
55 63 3
55 64 5
55 65 2
55 66 1
55 67 3
55 68 5
55 69 1
55 70 2
55 71 4
55 72 4
55 73 5
55 74 3
55 75 1
55 76 2
55 77 1
55 78 3
55 79 1
55 80 5
55 81 1
55 82 5
55 83 3
55 84 4
55 85 1
55 86 4
55 87 1
55 88 1
55 89 2
55 90 5
55 91 4
55 92 3
55 93 5
55 94 3
55 95 5
55 96 2
55 97 5
55 98 5
55 99 3
55 100 1
56 57 5
56 58 5
56 59 4
56 60 4
56 61 3
56 62 2
56 63 3
56 64 2
56 65 5
56 66 3
56 67 4
56 68 1
56 69 2
56 70 4
56 71 1
56 72 2
56 73 5
56 74 3
56 75 2
56 76 5
56 77 5
56 78 5
56 79 3
56 80 5
56 81 2
56 82 2
56 83 5
56 84 1
56 85 1
56 86 5
56 87 4
56 88 5
56 89 4
56 90 5
56 91 2
56 92 2
56 93 1
56 94 2
56 95 5
56 96 3
56 97 4
56 98 1
56 99 1
56 100 1
57 58 5
57 59 2
57 60 5
57 61 3
57 62 1
57 63 1
57 64 1
57 65 4
57 66 3
57 67 4
57 68 2
57 69 4
57 70 1
57 71 1
57 72 4
57 73 3
57 74 5
57 75 3
57 76 1
57 77 1
57 78 4
57 79 4
57 80 3
57 81 5
57 82 1
57 83 1
57 84 5
57 85 3
57 86 4
57 87 1
57 88 2
57 89 4
57 90 3
57 91 3
57 92 5
57 93 3
57 94 2
57 95 2
57 96 5
57 97 5
57 98 3
57 99 5
57 100 4
58 59 2
58 60 3
58 61 1
58 62 1
58 63 5
58 64 1
58 65 1
58 66 4
58 67 3
58 68 3
58 69 2
58 70 3
58 71 3
58 72 5
58 73 4
58 74 1
58 75 1
58 76 3
58 77 5
58 78 5
58 79 2
58 80 5
58 81 1
58 82 4
58 83 5
58 84 4
58 85 3
58 86 1
58 87 5
58 88 4
58 89 3
58 90 2
58 91 1
58 92 1
58 93 1
58 94 5
58 95 4
58 96 1
58 97 2
58 98 3
58 99 4
58 100 5
59 60 3
59 61 1
59 62 2
59 63 2
59 64 3
59 65 5
59 66 1
59 67 3
59 68 4
59 69 3
59 70 3
59 71 3
59 72 3
59 73 4
59 74 5
59 75 4
59 76 2
59 77 1
59 78 2
59 79 5
59 80 3
59 81 2
59 82 1
59 83 1
59 84 3
59 85 3
59 86 1
59 87 4
59 88 1
59 89 4
59 90 4
59 91 3
59 92 2
59 93 4
59 94 1
59 95 3
59 96 3
59 97 4
59 98 1
59 99 3
59 100 5
60 61 1
60 62 3
60 63 1
60 64 5
60 65 5
60 66 2
60 67 5
60 68 5
60 69 4
60 70 4
60 71 4
60 72 2
60 73 2
60 74 2
60 75 3
60 76 1
60 77 4
60 78 4
60 79 2
60 80 5
60 81 2
60 82 4
60 83 5
60 84 3
60 85 4
60 86 5
60 87 1
60 88 1
60 89 4
60 90 3
60 91 3
60 92 2
60 93 3
60 94 1
60 95 5
60 96 1
60 97 2
60 98 3
60 99 4
60 100 3
61 62 4
61 63 5
61 64 5
61 65 1
61 66 3
61 67 5
61 68 1
61 69 4
61 70 1
61 71 5
61 72 1
61 73 5
61 74 3
61 75 1
61 76 5
61 77 5
61 78 2
61 79 1
61 80 1
61 81 3
61 82 1
61 83 5
61 84 1
61 85 2
61 86 1
61 87 5
61 88 5
61 89 3
61 90 5
61 91 3
61 92 3
61 93 1
61 94 4
61 95 1
61 96 3
61 97 1
61 98 2
61 99 4
61 100 3
62 63 3
62 64 4
62 65 5
62 66 2
62 67 2
62 68 4
62 69 2
62 70 1
62 71 4
62 72 1
62 73 2
62 74 5
62 75 5
62 76 5
62 77 4
62 78 5
62 79 4
62 80 1
62 81 2
62 82 5
62 83 5
62 84 2
62 85 5
62 86 4
62 87 2
62 88 2
62 89 1
62 90 4
62 91 2
62 92 1
62 93 4
62 94 4
62 95 2
62 96 5
62 97 5
62 98 5
62 99 5
62 100 3
63 64 2
63 65 1
63 66 4
63 67 2
63 68 2
63 69 1
63 70 3
63 71 3
63 72 2
63 73 3
63 74 4
63 75 2
63 76 4
63 77 1
63 78 5
63 79 4
63 80 5
63 81 3
63 82 3
63 83 5
63 84 2
63 85 3
63 86 3
63 87 3
63 88 5
63 89 2
63 90 5
63 91 4
63 92 1
63 93 5
63 94 3
63 95 4
63 96 1
63 97 5
63 98 4
63 99 3
63 100 5
64 65 5
64 66 2
64 67 3
64 68 1
64 69 4
64 70 4
64 71 2
64 72 1
64 73 4
64 74 3
64 75 1
64 76 1
64 77 5
64 78 4
64 79 1
64 80 1
64 81 2
64 82 5
64 83 3
64 84 5
64 85 1
64 86 2
64 87 4
64 88 3
64 89 5
64 90 1
64 91 5
64 92 4
64 93 3
64 94 1
64 95 4
64 96 5
64 97 2
64 98 4
64 99 3
64 100 3
65 66 3
65 67 5
65 68 5
65 69 1
65 70 5
65 71 3
65 72 4
65 73 5
65 74 5
65 75 2
65 76 4
65 77 4
65 78 5
65 79 5
65 80 4
65 81 2
65 82 1
65 83 3
65 84 3
65 85 1
65 86 5
65 87 3
65 88 2
65 89 5
65 90 5
65 91 3
65 92 5
65 93 2
65 94 4
65 95 1
65 96 1
65 97 5
65 98 3
65 99 2
65 100 5
66 67 2
66 68 5
66 69 3
66 70 1
66 71 4
66 72 1
66 73 4
66 74 4
66 75 4
66 76 3
66 77 4
66 78 1
66 79 4
66 80 2
66 81 5
66 82 5
66 83 2
66 84 1
66 85 2
66 86 2
66 87 3
66 88 5
66 89 4
66 90 1
66 91 3
66 92 3
66 93 2
66 94 5
66 95 3
66 96 3
66 97 4
66 98 3
66 99 1
66 100 4
67 68 1
67 69 3
67 70 1
67 71 5
67 72 2
67 73 1
67 74 5
67 75 4
67 76 2
67 77 2
67 78 4
67 79 2
67 80 3
67 81 1
67 82 3
67 83 2
67 84 4
67 85 5
67 86 2
67 87 1
67 88 3
67 89 4
67 90 1
67 91 5
67 92 2
67 93 3
67 94 5
67 95 1
67 96 3
67 97 3
67 98 1
67 99 1
67 100 4
68 69 4
68 70 3
68 71 3
68 72 2
68 73 2
68 74 2
68 75 3
68 76 5
68 77 1
68 78 3
68 79 4
68 80 4
68 81 2
68 82 1
68 83 3
68 84 3
68 85 2
68 86 3
68 87 4
68 88 1
68 89 2
68 90 3
68 91 2
68 92 5
68 93 2
68 94 1
68 95 5
68 96 2
68 97 1
68 98 1
68 99 4
68 100 4
69 70 5
69 71 4
69 72 3
69 73 4
69 74 4
69 75 2
69 76 4
69 77 3
69 78 2
69 79 1
69 80 5
69 81 2
69 82 3
69 83 4
69 84 5
69 85 4
69 86 5
69 87 5
69 88 1
69 89 3
69 90 3
69 91 5
69 92 4
69 93 3
69 94 3
69 95 3
69 96 4
69 97 4
69 98 2
69 99 2
69 100 2
70 71 4
70 72 1
70 73 2
70 74 5
70 75 4
70 76 4
70 77 3
70 78 4
70 79 1
70 80 4
70 81 4
70 82 4
70 83 1
70 84 5
70 85 3
70 86 3
70 87 3
70 88 1
70 89 2
70 90 5
70 91 2
70 92 4
70 93 3
70 94 4
70 95 4
70 96 2
70 97 1
70 98 4
70 99 2
70 100 5
71 72 3
71 73 3
71 74 4
71 75 1
71 76 4
71 77 3
71 78 4
71 79 1
71 80 5
71 81 4
71 82 4
71 83 3
71 84 2
71 85 2
71 86 5
71 87 3
71 88 2
71 89 1
71 90 1
71 91 5
71 92 1
71 93 3
71 94 3
71 95 5
71 96 5
71 97 3
71 98 4
71 99 1
71 100 5
72 73 2
72 74 3
72 75 2
72 76 4
72 77 4
72 78 5
72 79 4
72 80 2
72 81 1
72 82 3
72 83 2
72 84 5
72 85 5
72 86 2
72 87 5
72 88 4
72 89 5
72 90 2
72 91 2
72 92 3
72 93 5
72 94 2
72 95 5
72 96 2
72 97 5
72 98 2
72 99 1
72 100 3
73 74 3
73 75 1
73 76 4
73 77 3
73 78 3
73 79 3
73 80 4
73 81 1
73 82 4
73 83 4
73 84 5
73 85 1
73 86 5
73 87 2
73 88 3
73 89 5
73 90 4
73 91 4
73 92 3
73 93 3
73 94 4
73 95 2
73 96 4
73 97 3
73 98 2
73 99 2
73 100 1
74 75 5
74 76 4
74 77 3
74 78 3
74 79 5
74 80 1
74 81 3
74 82 1
74 83 2
74 84 1
74 85 1
74 86 1
74 87 4
74 88 4
74 89 3
74 90 5
74 91 3
74 92 3
74 93 3
74 94 4
74 95 4
74 96 3
74 97 4
74 98 2
74 99 3
74 100 2
75 76 4
75 77 3
75 78 1
75 79 1
75 80 5
75 81 2
75 82 1
75 83 1
75 84 2
75 85 5
75 86 1
75 87 1
75 88 3
75 89 2
75 90 4
75 91 2
75 92 4
75 93 3
75 94 2
75 95 5
75 96 4
75 97 5
75 98 5
75 99 2
75 100 1
76 77 2
76 78 3
76 79 2
76 80 2
76 81 3
76 82 2
76 83 4
76 84 2
76 85 4
76 86 4
76 87 4
76 88 2
76 89 3
76 90 5
76 91 1
76 92 3
76 93 4
76 94 4
76 95 3
76 96 5
76 97 1
76 98 3
76 99 1
76 100 5
77 78 3
77 79 2
77 80 3
77 81 3
77 82 5
77 83 1
77 84 4
77 85 1
77 86 4
77 87 1
77 88 4
77 89 2
77 90 2
77 91 3
77 92 3
77 93 2
77 94 2
77 95 1
77 96 2
77 97 2
77 98 2
77 99 3
77 100 2
78 79 4
78 80 2
78 81 4
78 82 3
78 83 5
78 84 2
78 85 5
78 86 3
78 87 1
78 88 1
78 89 1
78 90 4
78 91 1
78 92 4
78 93 2
78 94 5
78 95 2
78 96 5
78 97 4
78 98 2
78 99 3
78 100 1
79 80 1
79 81 1
79 82 1
79 83 5
79 84 2
79 85 2
79 86 1
79 87 5
79 88 1
79 89 3
79 90 4
79 91 5
79 92 1
79 93 4
79 94 1
79 95 3
79 96 1
79 97 3
79 98 1
79 99 3
79 100 5
80 81 5
80 82 2
80 83 5
80 84 3
80 85 2
80 86 5
80 87 4
80 88 4
80 89 3
80 90 1
80 91 1
80 92 5
80 93 2
80 94 5
80 95 2
80 96 4
80 97 2
80 98 3
80 99 3
80 100 1
81 82 3
81 83 3
81 84 5
81 85 5
81 86 4
81 87 5
81 88 5
81 89 2
81 90 2
81 91 2
81 92 3
81 93 1
81 94 1
81 95 3
81 96 5
81 97 1
81 98 1
81 99 4
81 100 1
82 83 5
82 84 3
82 85 5
82 86 5
82 87 5
82 88 5
82 89 2
82 90 3
82 91 5
82 92 3
82 93 4
82 94 2
82 95 1
82 96 1
82 97 1
82 98 4
82 99 1
82 100 3
83 84 4
83 85 4
83 86 1
83 87 1
83 88 4
83 89 4
83 90 4
83 91 4
83 92 2
83 93 3
83 94 3
83 95 3
83 96 2
83 97 3
83 98 3
83 99 1
83 100 3
84 85 2
84 86 2
84 87 4
84 88 2
84 89 1
84 90 5
84 91 4
84 92 1
84 93 2
84 94 4
84 95 5
84 96 4
84 97 1
84 98 1
84 99 2
84 100 2
85 86 3
85 87 1
85 88 2
85 89 3
85 90 1
85 91 2
85 92 5
85 93 5
85 94 4
85 95 3
85 96 3
85 97 3
85 98 5
85 99 5
85 100 5
86 87 1
86 88 1
86 89 2
86 90 1
86 91 2
86 92 3
86 93 4
86 94 4
86 95 3
86 96 2
86 97 2
86 98 3
86 99 2
86 100 3
87 88 5
87 89 1
87 90 5
87 91 3
87 92 2
87 93 2
87 94 5
87 95 4
87 96 2
87 97 3
87 98 1
87 99 1
87 100 2
88 89 2
88 90 3
88 91 5
88 92 2
88 93 3
88 94 2
88 95 3
88 96 1
88 97 2
88 98 1
88 99 5
88 100 3
89 90 5
89 91 2
89 92 5
89 93 4
89 94 4
89 95 2
89 96 4
89 97 1
89 98 2
89 99 1
89 100 3
90 91 1
90 92 4
90 93 3
90 94 1
90 95 2
90 96 5
90 97 5
90 98 2
90 99 3
90 100 1
91 92 1
91 93 3
91 94 2
91 95 4
91 96 1
91 97 2
91 98 4
91 99 5
91 100 1
92 93 2
92 94 5
92 95 4
92 96 5
92 97 3
92 98 5
92 99 2
92 100 3
93 94 3
93 95 1
93 96 4
93 97 4
93 98 5
93 99 2
93 100 5
94 95 1
94 96 1
94 97 1
94 98 5
94 99 4
94 100 3
95 96 3
95 97 5
95 98 1
95 99 4
95 100 1
96 97 5
96 98 5
96 99 1
96 100 1
97 98 2
97 99 5
97 100 4
98 99 4
98 100 4
99 100 5
